20
1 0 4
2 0 3
2 1 5
3 0 5
3 1 6
3 2 9
4 0 10
4 1 7
4 2 5
4 3 10
5 0 10
5 1 3
5 2 8
5 3 4
5 4 3
6 0 4
6 1 5
6 2 7
6 3 10
6 4 8
6 5 10
7 0 8
7 1 9
7 2 9
7 3 7
7 4 7
7 5 6
7 6 7
8 0 7
8 1 6
8 2 4
8 3 9
8 4 7
8 5 9
8 6 3
8 7 7
9 0 9
9 1 9
9 2 10
9 3 9
9 4 6
9 5 2
9 6 5
9 7 1
9 8 3
10 0 7
10 1 4
10 2 5
10 3 9
10 4 4
10 5 6
10 6 7
10 7 7
10 8 8
10 9 9
11 0 7
11 1 1
11 2 5
11 3 9
11 4 2
11 5 3
11 6 9
11 7 7
11 8 6
11 9 5
11 10 1
12 0 3
12 1 3
12 2 4
12 3 10
12 4 9
12 5 6
12 6 10
12 7 9
12 8 7
12 9 1
12 10 2
12 11 3
13 0 1
13 1 5
13 2 1
13 3 8
13 4 7
13 5 8
13 6 10
13 7 2
13 8 3
13 9 4
13 10 1
13 11 3
13 12 10
14 0 3
14 1 10
14 2 8
14 3 1
14 4 10
14 5 1
14 6 1
14 7 6
14 8 4
14 9 2
14 10 5
14 11 8
14 12 8
14 13 6
15 0 9
15 1 2
15 2 10
15 3 5
15 4 6
15 5 8
15 6 4
15 7 3
15 8 4
15 9 10
15 10 3
15 11 7
15 12 8
15 13 1
15 14 1
16 0 5
16 1 9
16 2 7
16 3 1
16 4 6
16 5 2
16 6 3
16 7 8
16 8 9
16 9 6
16 10 5
16 11 5
16 12 7
16 13 3
16 14 5
16 15 10
17 0 6
17 1 3
17 2 1
17 3 4
17 4 8
17 5 2
17 6 3
17 7 7
17 8 10
17 9 3
17 10 9
17 11 4
17 12 7
17 13 7
17 14 2
17 15 5
17 16 6
18 0 6
18 1 7
18 2 3
18 3 4
18 4 3
18 5 1
18 6 5
18 7 8
18 8 2
18 9 2
18 10 9
18 11 3
18 12 5
18 13 5
18 14 7
18 15 8
18 16 9
18 17 6
19 0 7
19 1 4
19 2 6
19 3 4
19 4 6
19 5 6
19 6 9
19 7 3
19 8 5
19 9 9
19 10 10
19 11 5
19 12 10
19 13 6
19 14 6
19 15 5
19 16 9
19 17 6
19 18 4
